p edge 250 3119
e 0 7
e 0 35
e 0 45
e 0 46
e 0 53
e 0 59
e 0 61
e 0 63
e 0 74
e 0 90
e 0 104
e 0 120
e 0 133
e 0 153
e 0 167
e 0 173
e 0 185
e 0 186
e 0 209
e 0 224
e 0 228
e 0 235
e 1 11
e 1 22
e 1 37
e 1 44
e 1 56
e 1 63
e 1 67
e 1 69
e 1 78
e 1 87
e 1 95
e 1 98
e 1 100
e 1 102
e 1 112
e 1 119
e 1 122
e 1 133
e 1 137
e 1 140
e 1 154
e 1 156
e 1 167
e 1 174
e 1 192
e 1 201
e 1 205
e 1 214
e 1 218
e 1 219
e 1 232
e 1 245
e 2 5
e 2 11
e 2 13
e 2 27
e 2 35
e 2 37
e 2 38
e 2 53
e 2 61
e 2 66
e 2 75
e 2 121
e 2 122
e 2 130
e 2 135
e 2 139
e 2 153
e 2 170
e 2 174
e 2 175
e 2 179
e 2 228
e 2 245
e 3 24
e 3 31
e 3 37
e 3 48
e 3 84
e 3 94
e 3 135
e 3 139
e 3 142
e 3 167
e 3 171
e 3 179
e 3 204
e 3 214
e 3 225
e 3 226
e 3 234
e 4 17
e 4 49
e 4 53
e 4 70
e 4 76
e 4 84
e 4 95
e 4 115
e 4 121
e 4 138
e 4 144
e 4 151
e 4 153
e 4 173
e 4 183
e 4 192
e 4 193
e 4 197
e 4 244
e 5 13
e 5 26
e 5 27
e 5 37
e 5 81
e 5 107
e 5 113
e 5 126
e 5 127
e 5 136
e 5 148
e 5 156
e 5 158
e 5 161
e 5 171
e 5 177
e 5 194
e 5 230
e 5 231
e 5 239
e 5 240
e 6 17
e 6 28
e 6 30
e 6 39
e 6 63
e 6 69
e 6 84
e 6 100
e 6 110
e 6 139
e 6 147
e 6 152
e 6 156
e 6 165
e 6 170
e 6 173
e 6 188
e 6 202
e 6 206
e 6 208
e 6 222
e 6 225
e 7 21
e 7 49
e 7 57
e 7 63
e 7 72
e 7 79
e 7 80
e 7 84
e 7 98
e 7 116
e 7 123
e 7 136
e 7 160
e 7 174
e 7 177
e 7 179
e 7 186
e 7 196
e 7 212
e 7 237
e 7 241
e 7 242
e 7 249
e 8 25
e 8 34
e 8 41
e 8 61
e 8 85
e 8 90
e 8 93
e 8 112
e 8 114
e 8 115
e 8 116
e 8 126
e 8 133
e 8 143
e 8 145
e 8 147
e 8 150
e 8 158
e 8 162
e 8 166
e 8 192
e 8 198
e 8 200
e 8 217
e 9 34
e 9 35
e 9 78
e 9 94
e 9 102
e 9 109
e 9 118
e 9 121
e 9 123
e 9 137
e 9 165
e 9 192
e 9 198
e 9 199
e 9 205
e 9 220
e 9 228
e 9 234
e 9 245
e 10 15
e 10 18
e 10 23
e 10 54
e 10 61
e 10 94
e 10 96
e 10 97
e 10 121
e 10 136
e 10 139
e 10 170
e 10 175
e 10 191
e 10 199
e 10 200
e 10 205
e 10 206
e 10 211
e 10 215
e 10 216
e 10 230
e 10 242
e 11 13
e 11 21
e 11 28
e 11 29
e 11 45
e 11 71
e 11 72
e 11 83
e 11 85
e 11 107
e 11 120
e 11 121
e 11 123
e 11 130
e 11 135
e 11 137
e 11 139
e 11 142
e 11 148
e 11 155
e 11 163
e 11 170
e 11 182
e 11 208
e 11 215
e 11 224
e 11 245
e 11 249
e 12 15
e 12 16
e 12 22
e 12 23
e 12 28
e 12 33
e 12 41
e 12 47
e 12 48
e 12 50
e 12 57
e 12 58
e 12 72
e 12 77
e 12 82
e 12 95
e 12 99
e 12 103
e 12 115
e 12 123
e 12 128
e 12 132
e 12 137
e 12 140
e 12 148
e 12 155
e 12 157
e 12 165
e 12 171
e 12 199
e 12 217
e 12 225
e 12 226
e 12 229
e 12 237
e 12 239
e 12 248
e 13 16
e 13 23
e 13 32
e 13 50
e 13 54
e 13 63
e 13 69
e 13 72
e 13 74
e 13 77
e 13 86
e 13 90
e 13 96
e 13 104
e 13 113
e 13 114
e 13 123
e 13 139
e 13 140
e 13 150
e 13 152
e 13 158
e 13 159
e 13 172
e 13 182
e 13 196
e 13 197
e 13 223
e 13 225
e 13 231
e 13 234
e 13 235
e 13 249
e 14 23
e 14 28
e 14 30
e 14 36
e 14 43
e 14 52
e 14 58
e 14 70
e 14 71
e 14 91
e 14 92
e 14 108
e 14 111
e 14 116
e 14 119
e 14 120
e 14 122
e 14 143
e 14 158
e 14 159
e 14 165
e 14 189
e 14 201
e 14 209
e 14 247
e 15 19
e 15 26
e 15 27
e 15 35
e 15 38
e 15 49
e 15 51
e 15 60
e 15 70
e 15 71
e 15 89
e 15 98
e 15 103
e 15 126
e 15 135
e 15 138
e 15 141
e 15 153
e 15 154
e 15 159
e 15 166
e 15 178
e 15 186
e 15 196
e 15 217
e 15 222
e 15 231
e 15 237
e 15 241
e 15 244
e 16 22
e 16 38
e 16 40
e 16 49
e 16 51
e 16 54
e 16 57
e 16 66
e 16 87
e 16 98
e 16 99
e 16 108
e 16 118
e 16 129
e 16 142
e 16 150
e 16 185
e 16 194
e 16 198
e 16 205
e 16 212
e 16 215
e 16 217
e 17 25
e 17 26
e 17 29
e 17 36
e 17 44
e 17 54
e 17 78
e 17 79
e 17 83
e 17 87
e 17 113
e 17 116
e 17 122
e 17 124
e 17 133
e 17 148
e 17 149
e 17 166
e 17 167
e 17 187
e 17 195
e 17 231
e 17 241
e 18 23
e 18 49
e 18 65
e 18 69
e 18 71
e 18 72
e 18 78
e 18 97
e 18 100
e 18 123
e 18 125
e 18 134
e 18 136
e 18 140
e 18 154
e 18 157
e 18 173
e 18 181
e 18 208
e 18 215
e 18 218
e 18 219
e 18 225
e 18 230
e 18 232
e 18 233
e 18 241
e 18 245
e 18 249
e 19 22
e 19 26
e 19 44
e 19 47
e 19 51
e 19 57
e 19 64
e 19 68
e 19 101
e 19 110
e 19 114
e 19 120
e 19 123
e 19 135
e 19 136
e 19 153
e 19 157
e 19 159
e 19 167
e 19 168
e 19 209
e 19 214
e 19 223
e 19 226
e 19 227
e 19 230
e 19 245
e 20 27
e 20 62
e 20 109
e 20 112
e 20 118
e 20 119
e 20 125
e 20 133
e 20 155
e 20 157
e 20 158
e 20 164
e 20 166
e 20 184
e 20 224
e 20 232
e 20 239
e 20 244
e 20 247
e 21 24
e 21 55
e 21 68
e 21 74
e 21 77
e 21 83
e 21 87
e 21 95
e 21 109
e 21 118
e 21 156
e 21 195
e 21 205
e 21 206
e 21 215
e 21 220
e 21 245
e 22 36
e 22 60
e 22 61
e 22 70
e 22 75
e 22 78
e 22 88
e 22 120
e 22 135
e 22 138
e 22 139
e 22 142
e 22 146
e 22 185
e 22 186
e 22 189
e 22 195
e 22 196
e 22 217
e 22 221
e 22 247
e 23 26
e 23 36
e 23 57
e 23 72
e 23 92
e 23 103
e 23 106
e 23 116
e 23 122
e 23 131
e 23 133
e 23 144
e 23 157
e 23 183
e 23 184
e 23 200
e 23 210
e 23 217
e 23 223
e 23 227
e 23 231
e 23 246
e 24 26
e 24 34
e 24 36
e 24 39
e 24 43
e 24 47
e 24 49
e 24 56
e 24 57
e 24 69
e 24 76
e 24 81
e 24 87
e 24 121
e 24 155
e 24 158
e 24 161
e 24 178
e 24 182
e 24 196
e 24 201
e 24 208
e 24 214
e 24 215
e 24 229
e 24 231
e 24 233
e 25 52
e 25 54
e 25 63
e 25 75
e 25 78
e 25 93
e 25 94
e 25 103
e 25 108
e 25 122
e 25 134
e 25 158
e 25 165
e 25 168
e 25 172
e 25 176
e 25 182
e 25 206
e 25 225
e 25 239
e 26 38
e 26 46
e 26 48
e 26 51
e 26 63
e 26 81
e 26 82
e 26 106
e 26 121
e 26 157
e 26 194
e 26 199
e 26 201
e 26 219
e 26 231
e 26 239
e 27 38
e 27 44
e 27 46
e 27 48
e 27 50
e 27 59
e 27 69
e 27 70
e 27 72
e 27 73
e 27 78
e 27 87
e 27 90
e 27 97
e 27 115
e 27 127
e 27 145
e 27 158
e 27 171
e 27 181
e 27 182
e 27 195
e 27 198
e 27 203
e 27 218
e 27 220
e 27 229
e 27 234
e 27 239
e 27 240
e 28 48
e 28 64
e 28 68
e 28 76
e 28 85
e 28 93
e 28 94
e 28 129
e 28 131
e 28 135
e 28 138
e 28 146
e 28 150
e 28 158
e 28 159
e 28 162
e 28 163
e 28 168
e 28 169
e 28 173
e 28 175
e 28 176
e 28 199
e 28 208
e 28 215
e 28 217
e 28 237
e 28 242
e 28 246
e 28 247
e 29 32
e 29 37
e 29 48
e 29 58
e 29 61
e 29 76
e 29 79
e 29 88
e 29 95
e 29 97
e 29 99
e 29 110
e 29 117
e 29 121
e 29 167
e 29 168
e 29 169
e 29 172
e 29 183
e 29 189
e 29 214
e 29 219
e 29 228
e 29 239
e 30 32
e 30 35
e 30 45
e 30 49
e 30 57
e 30 59
e 30 84
e 30 113
e 30 122
e 30 131
e 30 149
e 30 153
e 30 170
e 30 180
e 30 223
e 30 226
e 31 56
e 31 60
e 31 74
e 31 103
e 31 125
e 31 182
e 31 184
e 31 210
e 31 216
e 31 219
e 31 220
e 31 222
e 31 233
e 31 248
e 32 41
e 32 42
e 32 57
e 32 60
e 32 62
e 32 74
e 32 77
e 32 84
e 32 87
e 32 91
e 32 93
e 32 97
e 32 108
e 32 141
e 32 156
e 32 185
e 32 186
e 32 201
e 32 204
e 32 225
e 32 237
e 32 247
e 32 249
e 33 34
e 33 47
e 33 72
e 33 86
e 33 95
e 33 106
e 33 144
e 33 149
e 33 151
e 33 157
e 33 171
e 33 173
e 33 177
e 33 181
e 33 190
e 33 192
e 33 203
e 33 226
e 34 40
e 34 60
e 34 65
e 34 90
e 34 95
e 34 153
e 34 162
e 34 165
e 34 170
e 34 171
e 34 172
e 34 175
e 34 180
e 34 199
e 34 204
e 34 209
e 34 216
e 34 235
e 34 239
e 34 241
e 35 39
e 35 52
e 35 54
e 35 56
e 35 58
e 35 68
e 35 85
e 35 88
e 35 95
e 35 126
e 35 127
e 35 138
e 35 167
e 35 193
e 35 201
e 35 218
e 35 248
e 36 40
e 36 51
e 36 73
e 36 92
e 36 94
e 36 100
e 36 102
e 36 140
e 36 147
e 36 169
e 36 170
e 36 194
e 36 203
e 36 222
e 36 229
e 36 232
e 36 234
e 36 245
e 36 249
e 37 62
e 37 65
e 37 120
e 37 128
e 37 132
e 37 145
e 37 150
e 37 152
e 37 169
e 37 170
e 37 178
e 37 192
e 37 239
e 37 248
e 38 47
e 38 64
e 38 70
e 38 96
e 38 97
e 38 102
e 38 107
e 38 148
e 38 149
e 38 161
e 38 171
e 38 172
e 38 173
e 38 177
e 38 199
e 38 228
e 39 40
e 39 44
e 39 74
e 39 87
e 39 100
e 39 114
e 39 120
e 39 122
e 39 137
e 39 140
e 39 141
e 39 149
e 39 162
e 39 176
e 39 178
e 39 179
e 39 218
e 39 219
e 39 224
e 39 230
e 40 54
e 40 64
e 40 68
e 40 69
e 40 79
e 40 97
e 40 101
e 40 110
e 40 112
e 40 114
e 40 116
e 40 117
e 40 129
e 40 142
e 40 154
e 40 177
e 40 205
e 40 206
e 40 207
e 40 213
e 40 215
e 40 219
e 40 230
e 40 240
e 40 247
e 41 43
e 41 45
e 41 56
e 41 58
e 41 61
e 41 96
e 41 110
e 41 147
e 41 151
e 41 153
e 41 187
e 41 194
e 41 211
e 41 212
e 41 214
e 41 223
e 41 230
e 42 75
e 42 81
e 42 83
e 42 88
e 42 94
e 42 98
e 42 105
e 42 109
e 42 110
e 42 113
e 42 131
e 42 137
e 42 144
e 42 151
e 42 157
e 42 158
e 42 161
e 42 184
e 42 205
e 42 217
e 43 69
e 43 99
e 43 102
e 43 105
e 43 110
e 43 123
e 43 125
e 43 147
e 43 151
e 43 152
e 43 155
e 43 161
e 43 171
e 43 172
e 43 173
e 43 187
e 43 192
e 43 198
e 43 207
e 43 219
e 43 227
e 43 228
e 43 232
e 43 240
e 44 66
e 44 71
e 44 75
e 44 78
e 44 99
e 44 116
e 44 134
e 44 144
e 44 148
e 44 155
e 44 159
e 44 174
e 44 184
e 44 186
e 44 188
e 44 201
e 44 212
e 44 214
e 44 224
e 44 230
e 44 233
e 44 235
e 44 236
e 45 59
e 45 73
e 45 87
e 45 115
e 45 124
e 45 128
e 45 134
e 45 157
e 45 160
e 45 163
e 45 172
e 45 179
e 45 182
e 45 192
e 45 203
e 45 228
e 45 232
e 45 241
e 45 246
e 45 247
e 46 62
e 46 63
e 46 87
e 46 139
e 46 152
e 46 169
e 46 172
e 46 181
e 46 189
e 46 198
e 46 211
e 46 212
e 46 213
e 46 238
e 47 53
e 47 83
e 47 85
e 47 121
e 47 130
e 47 136
e 47 158
e 47 166
e 47 173
e 47 174
e 47 176
e 47 177
e 47 182
e 47 224
e 47 229
e 47 230
e 47 234
e 47 235
e 47 239
e 48 49
e 48 51
e 48 69
e 48 88
e 48 99
e 48 115
e 48 116
e 48 137
e 48 152
e 48 154
e 48 168
e 48 182
e 48 187
e 48 189
e 48 208
e 48 216
e 48 217
e 48 223
e 48 224
e 48 227
e 48 230
e 48 233
e 49 51
e 49 59
e 49 70
e 49 102
e 49 109
e 49 118
e 49 123
e 49 137
e 49 150
e 49 173
e 49 175
e 49 176
e 49 178
e 49 179
e 49 185
e 49 203
e 49 235
e 50 52
e 50 102
e 50 103
e 50 106
e 50 110
e 50 120
e 50 129
e 50 132
e 50 135
e 50 139
e 50 168
e 50 172
e 50 174
e 50 193
e 50 200
e 50 209
e 50 210
e 50 215
e 50 219
e 50 222
e 50 225
e 50 244
e 51 68
e 51 79
e 51 120
e 51 123
e 51 124
e 51 149
e 51 151
e 51 174
e 51 179
e 51 202
e 51 208
e 51 212
e 51 214
e 51 233
e 51 234
e 51 237
e 51 246
e 52 56
e 52 60
e 52 91
e 52 97
e 52 104
e 52 110
e 52 118
e 52 133
e 52 145
e 52 161
e 52 162
e 52 163
e 52 171
e 52 174
e 52 197
e 52 198
e 52 201
e 52 212
e 52 216
e 52 248
e 52 249
e 53 54
e 53 69
e 53 70
e 53 73
e 53 81
e 53 96
e 53 116
e 53 118
e 53 120
e 53 125
e 53 129
e 53 133
e 53 162
e 53 166
e 53 180
e 53 196
e 53 209
e 53 212
e 53 240
e 53 242
e 53 249
e 54 68
e 54 83
e 54 89
e 54 105
e 54 116
e 54 122
e 54 126
e 54 130
e 54 132
e 54 136
e 54 137
e 54 139
e 54 143
e 54 146
e 54 150
e 54 158
e 54 166
e 54 169
e 54 179
e 54 185
e 54 186
e 54 204
e 54 220
e 54 236
e 55 76
e 55 79
e 55 80
e 55 85
e 55 88
e 55 90
e 55 96
e 55 98
e 55 118
e 55 120
e 55 133
e 55 143
e 55 144
e 55 151
e 55 154
e 55 158
e 55 182
e 55 187
e 55 206
e 55 212
e 55 230
e 55 241
e 56 64
e 56 73
e 56 74
e 56 81
e 56 88
e 56 89
e 56 102
e 56 140
e 56 156
e 56 173
e 56 176
e 56 185
e 56 190
e 56 206
e 56 208
e 56 213
e 56 227
e 56 230
e 56 235
e 56 239
e 56 247
e 57 61
e 57 75
e 57 89
e 57 93
e 57 101
e 57 103
e 57 109
e 57 118
e 57 122
e 57 127
e 57 129
e 57 150
e 57 160
e 57 176
e 57 188
e 57 198
e 57 212
e 57 230
e 57 239
e 57 242
e 58 60
e 58 66
e 58 68
e 58 77
e 58 83
e 58 89
e 58 95
e 58 114
e 58 115
e 58 116
e 58 117
e 58 120
e 58 129
e 58 140
e 58 172
e 58 182
e 58 199
e 58 202
e 58 215
e 58 218
e 58 232
e 58 242
e 59 73
e 59 90
e 59 94
e 59 111
e 59 124
e 59 132
e 59 149
e 59 168
e 59 169
e 59 184
e 59 247
e 60 69
e 60 77
e 60 82
e 60 125
e 60 131
e 60 144
e 60 146
e 60 170
e 60 171
e 60 172
e 60 176
e 60 187
e 60 190
e 60 192
e 60 197
e 60 200
e 60 217
e 60 218
e 60 226
e 61 62
e 61 64
e 61 98
e 61 100
e 61 119
e 61 126
e 61 141
e 61 147
e 61 163
e 61 189
e 61 195
e 61 205
e 61 211
e 61 243
e 61 248
e 62 66
e 62 75
e 62 94
e 62 99
e 62 111
e 62 125
e 62 136
e 62 137
e 62 139
e 62 150
e 62 158
e 62 159
e 62 162
e 62 203
e 62 211
e 62 213
e 62 234
e 63 70
e 63 105
e 63 122
e 63 141
e 63 156
e 63 158
e 63 172
e 63 177
e 63 186
e 63 188
e 63 191
e 63 205
e 63 211
e 63 221
e 63 228
e 63 237
e 64 65
e 64 73
e 64 90
e 64 99
e 64 115
e 64 116
e 64 117
e 64 128
e 64 134
e 64 150
e 64 157
e 64 159
e 64 167
e 64 169
e 64 183
e 64 186
e 64 204
e 64 220
e 64 233
e 64 239
e 64 246
e 65 66
e 65 80
e 65 86
e 65 87
e 65 96
e 65 97
e 65 117
e 65 124
e 65 126
e 65 154
e 65 157
e 65 172
e 65 175
e 65 176
e 65 182
e 65 197
e 65 200
e 65 201
e 65 214
e 65 219
e 65 232
e 65 233
e 65 235
e 65 237
e 65 239
e 65 248
e 66 68
e 66 72
e 66 90
e 66 94
e 66 102
e 66 106
e 66 114
e 66 115
e 66 118
e 66 120
e 66 128
e 66 130
e 66 143
e 66 146
e 66 152
e 66 155
e 66 167
e 66 194
e 66 215
e 66 217
e 66 221
e 66 237
e 67 71
e 67 82
e 67 96
e 67 109
e 67 115
e 67 128
e 67 130
e 67 140
e 67 141
e 67 148
e 67 153
e 67 161
e 67 165
e 67 167
e 67 168
e 67 173
e 67 183
e 67 205
e 67 206
e 67 208
e 67 212
e 67 232
e 67 233
e 67 242
e 67 246
e 67 249
e 68 69
e 68 75
e 68 93
e 68 122
e 68 154
e 68 175
e 68 190
e 68 192
e 68 194
e 68 202
e 68 205
e 68 218
e 68 220
e 68 224
e 68 230
e 68 237
e 69 72
e 69 88
e 69 103
e 69 107
e 69 114
e 69 123
e 69 132
e 69 137
e 69 144
e 69 183
e 69 204
e 69 205
e 69 209
e 69 212
e 69 244
e 70 92
e 70 133
e 70 143
e 70 146
e 70 153
e 70 158
e 70 183
e 70 196
e 70 203
e 70 211
e 70 213
e 70 221
e 70 244
e 71 86
e 71 113
e 71 123
e 71 128
e 71 132
e 71 135
e 71 145
e 71 160
e 71 177
e 71 179
e 71 197
e 71 219
e 71 231
e 71 234
e 71 244
e 72 102
e 72 123
e 72 124
e 72 127
e 72 140
e 72 168
e 72 179
e 72 197
e 72 203
e 72 204
e 72 216
e 72 217
e 72 218
e 72 241
e 72 245
e 72 247
e 73 84
e 73 85
e 73 87
e 73 93
e 73 96
e 73 105
e 73 111
e 73 117
e 73 146
e 73 150
e 73 158
e 73 168
e 73 183
e 73 194
e 73 198
e 73 199
e 73 211
e 73 216
e 73 233
e 73 234
e 73 244
e 74 99
e 74 105
e 74 112
e 74 114
e 74 118
e 74 119
e 74 149
e 74 158
e 74 165
e 74 176
e 74 188
e 74 191
e 74 195
e 74 199
e 74 202
e 74 203
e 74 205
e 74 209
e 74 212
e 74 220
e 75 83
e 75 97
e 75 110
e 75 118
e 75 119
e 75 137
e 75 160
e 75 187
e 75 216
e 75 222
e 75 233
e 75 235
e 75 238
e 76 82
e 76 92
e 76 93
e 76 94
e 76 96
e 76 107
e 76 120
e 76 127
e 76 128
e 76 129
e 76 132
e 76 138
e 76 141
e 76 142
e 76 153
e 76 154
e 76 185
e 76 188
e 76 207
e 76 209
e 76 210
e 76 212
e 76 221
e 76 246
e 77 87
e 77 101
e 77 134
e 77 135
e 77 145
e 77 147
e 77 162
e 77 184
e 77 185
e 77 202
e 77 209
e 77 216
e 77 217
e 77 230
e 78 87
e 78 103
e 78 109
e 78 115
e 78 134
e 78 145
e 78 155
e 78 158
e 78 182
e 78 192
e 78 209
e 78 213
e 78 216
e 78 222
e 78 238
e 78 242
e 78 248
e 79 82
e 79 99
e 79 107
e 79 158
e 79 162
e 79 163
e 79 179
e 79 187
e 79 201
e 79 202
e 79 206
e 79 213
e 79 226
e 79 231
e 79 242
e 79 249
e 80 81
e 80 85
e 80 92
e 80 106
e 80 107
e 80 141
e 80 145
e 80 146
e 80 154
e 80 158
e 80 166
e 80 177
e 80 182
e 80 193
e 80 200
e 80 225
e 80 232
e 80 245
e 81 97
e 81 99
e 81 104
e 81 108
e 81 109
e 81 120
e 81 121
e 81 124
e 81 134
e 81 145
e 81 151
e 81 160
e 81 171
e 81 187
e 81 200
e 81 210
e 81 220
e 81 222
e 81 227
e 81 229
e 81 232
e 81 238
e 82 89
e 82 130
e 82 137
e 82 182
e 82 185
e 82 187
e 82 197
e 82 211
e 82 215
e 82 223
e 82 228
e 82 241
e 82 243
e 82 246
e 83 92
e 83 99
e 83 129
e 83 144
e 83 163
e 83 164
e 83 179
e 83 180
e 83 182
e 83 208
e 83 211
e 83 213
e 83 217
e 83 218
e 83 235
e 83 244
e 84 87
e 84 91
e 84 93
e 84 95
e 84 99
e 84 107
e 84 113
e 84 124
e 84 133
e 84 136
e 84 138
e 84 151
e 84 161
e 84 170
e 84 185
e 84 190
e 84 201
e 84 203
e 84 205
e 84 211
e 84 232
e 84 237
e 84 249
e 85 87
e 85 92
e 85 107
e 85 127
e 85 129
e 85 141
e 85 154
e 85 160
e 85 177
e 85 183
e 85 184
e 85 185
e 85 194
e 85 197
e 85 226
e 85 235
e 85 239
e 86 89
e 86 151
e 86 154
e 86 163
e 86 166
e 86 176
e 86 181
e 86 210
e 86 221
e 86 232
e 86 234
e 86 245
e 86 246
e 86 247
e 87 100
e 87 105
e 87 112
e 87 113
e 87 117
e 87 130
e 87 146
e 87 160
e 87 167
e 87 182
e 87 192
e 87 206
e 87 213
e 87 233
e 87 235
e 87 248
e 88 92
e 88 95
e 88 104
e 88 108
e 88 162
e 88 163
e 88 169
e 88 170
e 88 195
e 88 204
e 88 206
e 88 211
e 88 215
e 88 219
e 88 237
e 88 242
e 88 247
e 88 248
e 89 103
e 89 114
e 89 116
e 89 118
e 89 131
e 89 149
e 89 157
e 89 167
e 89 171
e 89 179
e 89 224
e 89 227
e 89 231
e 89 247
e 90 99
e 90 112
e 90 124
e 90 128
e 90 137
e 90 139
e 90 156
e 90 157
e 90 168
e 90 180
e 90 203
e 91 107
e 91 128
e 91 150
e 91 152
e 91 163
e 91 165
e 91 167
e 91 168
e 91 169
e 91 174
e 91 176
e 91 186
e 91 193
e 91 199
e 91 208
e 91 209
e 91 214
e 91 218
e 91 220
e 91 221
e 91 222
e 91 224
e 91 226
e 91 229
e 91 230
e 92 105
e 92 117
e 92 149
e 92 158
e 92 171
e 92 176
e 92 182
e 92 187
e 92 197
e 92 211
e 92 213
e 92 217
e 92 218
e 92 221
e 92 224
e 92 230
e 92 232
e 93 123
e 93 145
e 93 150
e 93 155
e 93 157
e 93 161
e 93 162
e 93 166
e 93 167
e 93 173
e 93 175
e 93 183
e 93 188
e 93 199
e 93 217
e 93 225
e 93 231
e 93 234
e 93 235
e 94 126
e 94 132
e 94 138
e 94 144
e 94 145
e 94 146
e 94 148
e 94 150
e 94 152
e 94 198
e 94 203
e 94 210
e 94 224
e 94 228
e 94 243
e 94 244
e 95 99
e 95 102
e 95 107
e 95 133
e 95 180
e 95 181
e 95 201
e 95 210
e 95 215
e 95 239
e 96 98
e 96 99
e 96 113
e 96 127
e 96 142
e 96 168
e 96 188
e 96 193
e 96 229
e 96 230
e 96 233
e 96 236
e 97 103
e 97 118
e 97 131
e 97 143
e 97 145
e 97 159
e 97 206
e 97 218
e 97 223
e 97 226
e 97 236
e 97 243
e 97 247
e 97 248
e 98 104
e 98 106
e 98 119
e 98 125
e 98 126
e 98 134
e 98 135
e 98 138
e 98 146
e 98 149
e 98 153
e 98 159
e 98 162
e 98 169
e 98 181
e 98 183
e 98 189
e 98 196
e 98 201
e 98 228
e 98 237
e 98 241
e 98 244
e 99 107
e 99 109
e 99 123
e 99 131
e 99 134
e 99 136
e 99 138
e 99 166
e 99 167
e 99 172
e 99 177
e 99 183
e 99 191
e 99 208
e 99 235
e 99 243
e 99 244
e 100 118
e 100 121
e 100 124
e 100 126
e 100 151
e 100 153
e 100 187
e 100 188
e 100 189
e 100 198
e 100 203
e 100 219
e 100 227
e 100 243
e 100 246
e 101 134
e 101 144
e 101 148
e 101 151
e 101 156
e 101 161
e 101 163
e 101 168
e 101 187
e 101 191
e 101 193
e 101 203
e 101 206
e 101 208
e 101 243
e 102 115
e 102 133
e 102 147
e 102 151
e 102 176
e 102 179
e 102 182
e 102 188
e 102 200
e 102 216
e 102 226
e 102 228
e 102 229
e 103 107
e 103 111
e 103 114
e 103 116
e 103 119
e 103 122
e 103 137
e 103 142
e 103 166
e 103 173
e 103 182
e 103 194
e 103 224
e 104 107
e 104 121
e 104 134
e 104 140
e 104 161
e 104 201
e 104 217
e 104 219
e 104 237
e 105 109
e 105 112
e 105 154
e 105 159
e 105 161
e 105 162
e 105 170
e 105 171
e 105 177
e 105 179
e 105 186
e 105 187
e 105 189
e 105 193
e 105 212
e 105 221
e 105 227
e 105 231
e 106 110
e 106 121
e 106 140
e 106 150
e 106 156
e 106 162
e 106 168
e 106 195
e 106 206
e 106 217
e 106 225
e 106 240
e 106 249
e 107 108
e 107 114
e 107 128
e 107 134
e 107 140
e 107 148
e 107 152
e 107 162
e 107 163
e 107 168
e 107 183
e 107 187
e 107 215
e 107 219
e 107 223
e 107 229
e 107 234
e 107 236
e 107 240
e 107 242
e 107 246
e 108 111
e 108 113
e 108 118
e 108 126
e 108 127
e 108 130
e 108 148
e 108 174
e 108 181
e 108 206
e 108 219
e 108 223
e 109 139
e 109 153
e 109 163
e 109 180
e 109 190
e 109 199
e 109 204
e 109 207
e 109 218
e 109 235
e 109 244
e 110 113
e 110 117
e 110 164
e 110 184
e 110 186
e 110 197
e 110 199
e 110 200
e 110 204
e 110 216
e 110 219
e 110 233
e 110 239
e 111 116
e 111 117
e 111 119
e 111 140
e 111 155
e 111 163
e 111 165
e 111 167
e 111 199
e 111 202
e 111 212
e 111 230
e 111 232
e 112 113
e 112 152
e 112 170
e 112 177
e 112 189
e 112 191
e 112 192
e 112 193
e 112 196
e 112 200
e 112 208
e 112 211
e 112 215
e 112 218
e 112 221
e 112 223
e 112 227
e 112 229
e 112 242
e 112 245
e 112 247
e 113 117
e 113 125
e 113 135
e 113 137
e 113 160
e 113 169
e 113 171
e 113 187
e 113 191
e 113 222
e 113 223
e 113 225
e 113 235
e 113 243
e 114 125
e 114 127
e 114 132
e 114 143
e 114 149
e 114 158
e 114 172
e 114 174
e 114 188
e 114 203
e 114 210
e 114 215
e 114 241
e 114 242
e 114 247
e 115 119
e 115 131
e 115 139
e 115 140
e 115 146
e 115 156
e 115 166
e 115 184
e 115 201
e 115 206
e 115 219
e 115 226
e 115 231
e 115 247
e 116 124
e 116 135
e 116 136
e 116 148
e 116 160
e 116 175
e 116 177
e 116 181
e 116 202
e 116 205
e 116 213
e 116 222
e 116 245
e 117 124
e 117 127
e 117 128
e 117 142
e 117 144
e 117 162
e 117 192
e 117 196
e 117 200
e 117 219
e 117 222
e 117 226
e 117 236
e 117 249
e 118 132
e 118 133
e 118 170
e 118 175
e 118 187
e 118 207
e 119 120
e 119 123
e 119 126
e 119 148
e 119 181
e 119 195
e 119 208
e 119 227
e 119 228
e 119 238
e 119 239
e 119 242
e 120 165
e 120 170
e 120 187
e 120 196
e 120 200
e 120 206
e 120 217
e 120 220
e 120 221
e 120 226
e 120 227
e 120 233
e 120 235
e 121 130
e 121 158
e 121 164
e 121 182
e 121 200
e 121 216
e 121 235
e 121 248
e 122 129
e 122 134
e 122 165
e 122 173
e 122 178
e 122 189
e 122 192
e 122 202
e 122 206
e 122 211
e 122 212
e 122 220
e 122 232
e 122 243
e 122 244
e 123 135
e 123 138
e 123 141
e 123 186
e 123 199
e 123 205
e 123 217
e 123 218
e 123 228
e 123 242
e 124 138
e 124 157
e 124 161
e 124 169
e 124 171
e 124 176
e 124 177
e 124 191
e 124 192
e 124 195
e 124 215
e 124 220
e 124 222
e 124 236
e 124 247
e 125 127
e 125 130
e 125 141
e 125 144
e 125 145
e 125 155
e 125 158
e 125 168
e 125 171
e 125 177
e 125 180
e 125 203
e 126 133
e 126 139
e 126 142
e 126 167
e 126 169
e 126 181
e 126 190
e 126 200
e 126 208
e 126 209
e 126 214
e 126 218
e 126 223
e 126 228
e 126 233
e 127 146
e 127 149
e 127 169
e 127 182
e 127 185
e 127 203
e 127 216
e 127 234
e 128 129
e 128 137
e 128 138
e 128 187
e 128 188
e 128 200
e 128 201
e 128 208
e 128 212
e 128 232
e 129 131
e 129 140
e 129 145
e 129 146
e 129 153
e 129 159
e 129 161
e 129 186
e 129 208
e 129 224
e 129 226
e 130 146
e 130 147
e 130 153
e 130 167
e 130 172
e 130 178
e 130 181
e 130 209
e 130 212
e 130 223
e 130 229
e 131 132
e 131 175
e 131 192
e 131 203
e 131 212
e 131 213
e 131 225
e 131 246
e 131 248
e 132 137
e 132 140
e 132 153
e 132 154
e 132 155
e 132 157
e 132 164
e 132 170
e 132 197
e 132 210
e 132 218
e 132 226
e 132 234
e 133 154
e 133 168
e 133 171
e 133 204
e 133 218
e 133 243
e 134 137
e 134 141
e 134 147
e 134 148
e 134 155
e 134 156
e 134 187
e 134 193
e 134 197
e 134 201
e 134 209
e 134 240
e 134 242
e 135 151
e 135 154
e 135 168
e 135 171
e 135 180
e 135 186
e 135 193
e 135 222
e 135 223
e 135 226
e 135 233
e 135 247
e 136 138
e 136 158
e 136 177
e 136 189
e 136 208
e 136 209
e 136 230
e 136 233
e 137 156
e 137 190
e 137 207
e 137 211
e 137 249
e 138 142
e 138 188
e 138 196
e 138 226
e 138 241
e 139 146
e 139 159
e 139 169
e 139 172
e 139 178
e 139 204
e 139 209
e 139 221
e 139 223
e 139 231
e 139 240
e 139 241
e 140 143
e 140 161
e 140 185
e 140 195
e 140 196
e 140 200
e 140 201
e 140 206
e 140 232
e 140 240
e 140 241
e 140 248
e 141 143
e 141 166
e 141 191
e 141 196
e 141 200
e 141 208
e 141 223
e 141 229
e 141 230
e 141 235
e 141 241
e 142 143
e 142 149
e 142 152
e 142 153
e 142 163
e 142 178
e 142 197
e 142 200
e 142 210
e 142 222
e 143 164
e 143 171
e 143 177
e 143 178
e 143 181
e 143 193
e 143 200
e 143 201
e 143 209
e 143 219
e 143 229
e 144 150
e 144 153
e 144 155
e 144 156
e 144 162
e 144 181
e 144 182
e 144 192
e 144 203
e 144 209
e 144 217
e 144 222
e 144 233
e 144 239
e 144 242
e 144 245
e 144 246
e 145 155
e 145 160
e 145 171
e 145 182
e 145 190
e 145 192
e 145 200
e 145 201
e 145 206
e 145 207
e 145 216
e 146 164
e 146 165
e 146 172
e 146 181
e 146 185
e 146 229
e 146 237
e 146 248
e 147 148
e 147 165
e 147 180
e 147 188
e 147 199
e 147 207
e 147 209
e 147 214
e 147 217
e 147 219
e 147 223
e 147 230
e 147 232
e 147 239
e 147 243
e 148 150
e 148 155
e 148 167
e 148 186
e 148 200
e 148 222
e 148 246
e 149 160
e 149 168
e 149 195
e 149 197
e 149 198
e 149 199
e 149 218
e 149 249
e 150 155
e 150 184
e 150 236
e 151 179
e 151 186
e 151 194
e 151 197
e 151 200
e 151 217
e 151 223
e 151 227
e 151 232
e 151 244
e 152 153
e 152 155
e 152 162
e 152 171
e 152 175
e 152 179
e 152 183
e 152 194
e 152 216
e 152 217
e 152 219
e 152 220
e 152 222
e 152 234
e 152 239
e 153 155
e 153 161
e 153 169
e 153 177
e 153 180
e 153 198
e 153 213
e 153 214
e 153 230
e 153 242
e 154 159
e 154 160
e 154 163
e 154 169
e 154 197
e 154 225
e 154 230
e 154 243
e 155 165
e 155 168
e 155 169
e 155 174
e 155 177
e 155 178
e 155 179
e 155 187
e 155 193
e 155 221
e 155 234
e 155 240
e 156 159
e 156 160
e 156 164
e 156 167
e 156 176
e 156 182
e 156 190
e 156 196
e 156 198
e 156 200
e 156 203
e 156 204
e 156 213
e 156 239
e 156 242
e 157 171
e 157 173
e 157 201
e 157 208
e 157 213
e 157 223
e 157 229
e 157 245
e 157 247
e 158 160
e 158 164
e 158 190
e 158 197
e 158 211
e 158 217
e 158 228
e 159 168
e 159 177
e 159 191
e 159 192
e 159 203
e 159 206
e 159 213
e 159 218
e 159 231
e 159 244
e 159 249
e 160 168
e 160 171
e 160 182
e 160 197
e 160 209
e 160 221
e 160 222
e 160 227
e 160 243
e 161 169
e 161 180
e 161 193
e 161 194
e 161 195
e 161 210
e 161 217
e 161 220
e 161 231
e 161 236
e 161 240
e 161 242
e 161 249
e 162 167
e 162 185
e 162 186
e 162 199
e 162 210
e 162 212
e 162 214
e 162 229
e 162 236
e 162 238
e 162 243
e 162 246
e 162 249
e 163 194
e 163 195
e 163 212
e 163 216
e 163 218
e 163 222
e 163 229
e 163 235
e 163 244
e 163 247
e 164 167
e 164 171
e 164 177
e 164 185
e 164 188
e 164 202
e 164 209
e 164 217
e 164 223
e 164 226
e 164 238
e 164 239
e 164 245
e 164 247
e 164 248
e 165 170
e 165 195
e 165 199
e 165 207
e 165 221
e 165 224
e 165 228
e 165 245
e 165 248
e 166 171
e 166 173
e 166 196
e 166 201
e 166 203
e 166 205
e 166 209
e 166 226
e 166 245
e 167 171
e 167 179
e 167 187
e 167 190
e 167 201
e 167 215
e 167 236
e 167 239
e 167 244
e 168 170
e 168 176
e 168 182
e 168 183
e 168 194
e 168 213
e 168 223
e 168 229
e 168 242
e 168 249
e 169 181
e 169 187
e 169 188
e 169 191
e 169 194
e 169 199
e 169 209
e 169 217
e 169 219
e 169 220
e 169 224
e 169 230
e 169 233
e 169 246
e 170 181
e 170 200
e 170 208
e 170 210
e 170 214
e 170 219
e 170 222
e 170 225
e 170 226
e 170 232
e 170 238
e 170 241
e 170 243
e 171 172
e 171 192
e 171 199
e 171 242
e 172 174
e 172 186
e 172 194
e 172 195
e 172 208
e 172 210
e 172 216
e 172 245
e 173 176
e 173 182
e 173 192
e 173 201
e 173 219
e 173 241
e 173 242
e 173 244
e 173 245
e 173 246
e 174 241
e 174 243
e 174 244
e 174 246
e 175 183
e 175 186
e 175 204
e 175 220
e 175 227
e 175 235
e 175 241
e 176 188
e 176 197
e 176 206
e 176 210
e 176 217
e 176 219
e 176 227
e 177 183
e 177 189
e 177 198
e 177 207
e 177 211
e 177 222
e 177 229
e 177 231
e 177 241
e 178 182
e 178 201
e 178 223
e 178 224
e 178 230
e 178 236
e 178 239
e 178 241
e 179 187
e 179 208
e 179 214
e 179 215
e 179 235
e 179 247
e 180 189
e 180 194
e 180 198
e 180 199
e 180 208
e 180 221
e 180 230
e 180 239
e 180 243
e 180 246
e 181 204
e 181 220
e 181 240
e 181 241
e 181 246
e 182 200
e 182 202
e 182 218
e 182 223
e 182 238
e 183 187
e 183 189
e 183 194
e 183 198
e 183 202
e 183 210
e 183 211
e 183 224
e 183 233
e 183 246
e 184 189
e 184 197
e 184 209
e 184 212
e 184 222
e 184 229
e 184 235
e 184 237
e 184 249
e 185 189
e 185 194
e 185 195
e 185 223
e 185 238
e 186 197
e 186 209
e 186 221
e 186 224
e 186 236
e 186 237
e 186 240
e 187 221
e 187 222
e 187 232
e 187 235
e 187 245
e 187 247
e 188 194
e 188 205
e 188 211
e 188 215
e 188 217
e 188 221
e 188 233
e 189 193
e 189 221
e 189 233
e 189 239
e 190 200
e 190 214
e 190 215
e 190 232
e 190 242
e 190 243
e 190 246
e 191 192
e 191 193
e 191 218
e 191 224
e 191 238
e 191 247
e 192 199
e 192 208
e 192 211
e 192 216
e 192 232
e 193 195
e 193 200
e 193 202
e 193 208
e 193 218
e 193 230
e 193 231
e 193 236
e 193 238
e 193 242
e 194 198
e 194 211
e 194 215
e 194 226
e 194 246
e 194 249
e 195 219
e 195 223
e 195 226
e 195 235
e 195 244
e 195 248
e 196 204
e 196 208
e 196 209
e 196 213
e 196 226
e 196 231
e 196 242
e 196 249
e 197 211
e 197 213
e 198 228
e 198 229
e 198 231
e 198 241
e 199 201
e 199 203
e 199 207
e 199 211
e 199 226
e 199 234
e 200 215
e 200 237
e 201 230
e 201 246
e 202 215
e 202 226
e 202 230
e 202 238
e 203 211
e 203 214
e 203 225
e 203 232
e 203 237
e 204 207
e 204 217
e 205 206
e 205 227
e 206 214
e 206 223
e 206 229
e 206 231
e 206 232
e 206 236
e 206 240
e 206 241
e 207 209
e 207 227
e 207 230
e 207 236
e 207 241
e 208 239
e 209 228
e 209 239
e 209 241
e 209 248
e 209 249
e 211 220
e 211 230
e 211 233
e 211 235
e 211 240
e 211 242
e 211 248
e 212 215
e 212 216
e 212 219
e 212 228
e 212 243
e 212 248
e 213 219
e 213 245
e 214 218
e 214 226
e 214 233
e 215 216
e 215 223
e 215 238
e 216 219
e 216 237
e 217 228
e 217 233
e 218 232
e 218 233
e 218 240
e 218 246
e 219 222
e 219 231
e 219 246
e 219 248
e 220 227
e 220 228
e 221 244
e 222 238
e 222 245
e 223 225
e 223 228
e 223 237
e 223 242
e 223 243
e 223 247
e 225 234
e 225 236
e 225 239
e 226 241
e 227 234
e 227 242
e 229 237
e 229 239
e 229 244
e 230 234
e 232 233
e 232 235
e 232 246
e 233 234
e 233 241
e 233 244
e 234 235
e 234 246
e 234 249
e 235 241
e 238 243
e 238 246
e 242 245
e 242 246
e 242 248
